Route #1: 0 30 46 8 21 27 34 38 31 0
Route #2: 0 17 40 41 26 62 43 52 0
Route #3: 0 1 49 54 7 0
Route #4: 0 32 37 10 18 61 47 11 0
Route #5: 0 33 29 50 12 24 15 9 3 0
Route #6: 0 36 60 36 51 59 14 35 0
Route #7: 0 19 5 4 48 22 55 28 56 16 0
Route #8: 0 13 23 25 57 42 63 20 0
Route #9: 0 39 2 44 45 58 53 6 0
Cost 1027:
